
  22   10
  10   10   10   10   10   10   10   10   10   10

   0   0   0   0   0   0   0   0   0   0   0   3 2 3 21 
   4   0   0   0   0  10   0   0   0   0   0  13 20 19 18 17 16 15 10 9 8 7 6 5 4 
   2   0   0   0   0   0  10   0   0   0   0  10 14 13 12 11 9 8 7 6 5 4 
   9   0   0   0   0   0  10   0   0   0   0   1 22
   3   0   0   0   0   0   0  10   0   0   0   1 22
  10   0   0  10   0   0   0   0   0   0   0   1 22
   9   0   0   0   0   0   0  10   0   0   0   1 22
   2   0  10   0   0   0   0   0   0   0   0   1 22
   3   0   0   0  10   0   0   0   0   0   0   1 22
   2   0   0  10   0   0   0   0   0   0   0   1 22
   7   0   0   0   0   0   0   0   0  10   0   1 22
   8   0   0  10   0   0   0   0   0   0   0   1 22
  10   0   0  10   0   0   0   0   0   0   0   1 22
   1   0   0   0   0   0   0  10   0   0   0   1 22
   3  10   0   0   0   0   0   0   0   0   0   1 22
   7   0   0  10   0   0   0   0   0   0   0   1 22
   9  10   0   0   0   0   0   0   0   0   0   1 22
   8   0   0   0   0   0   0  10   0   0   0   1 22
   2   0   0   0  10   0   0   0   0   0   0   1 22
   3   0  10   0   0   0   0   0   0   0   0   1 22
   3   0   0   0   0   0   0   0  10   0   0   1 22
   0   0   0   0   0   0   0   0   0   0   0   0 
